Set parameter TokenServer to value "hpc-licenses.hpcc.usc.edu"
Set parameter TimeLimit to value 3600
Gurobi Optimizer version 9.5.1 build v9.5.1rc2 (linux64)
Thread count: 20 physical cores, 20 logical processors, using up to 20 threads
Optimize a model with 6007 rows, 4529 columns and 24534 nonzeros
Model fingerprint: 0xae3518fc
Variable types: 4506 continuous, 23 integer (23 binary)
Coefficient statistics:
  Matrix range     [1e+00, 1e+00]
  Objective range  [2e-03, 1e+00]
  Bounds range     [1e+00, 1e+00]
  RHS range        [1e+00, 1e+02]
Presolve removed 1514 rows and 1511 columns
Presolve time: 0.06s
Presolved: 4493 rows, 3018 columns, 21993 nonzeros
Variable types: 2998 continuous, 20 integer (20 binary)
Found heuristic solution: objective 256.0502647

Root relaxation: objective 2.594667e+02, 2981 iterations, 0.11 seconds (0.14 work units)

    Nodes    |    Current Node    |     Objective Bounds      |     Work
 Expl Unexpl |  Obj  Depth IntInf | Incumbent    BestBd   Gap | It/Node Time

     0     0  259.46666    0    4  256.05026  259.46666  1.33%     -    0s
     0     0  259.21864    0    5  256.05026  259.21864  1.24%     -    0s
H    0     0                     259.0757709  259.21864  0.06%     -    0s
     0     0  259.18925    0    2  259.07577  259.18925  0.04%     -    0s
     0     0  259.18925    0    2  259.07577  259.18925  0.04%     -    0s

Explored 1 nodes (4148 simplex iterations) in 1.18 seconds (0.43 work units)
Thread count was 20 (of 20 available processors)

Solution count 2: 259.076 256.05 

Optimal solution found (tolerance 1.00e-04)
Best objective 2.590757709327e+02, best bound 2.590757709327e+02, gap 0.0000%



#########node  1
V1.8
#########node  2
0.04040404040404038,0.9595959595959596
#########node  3
1.0,0.0


Total Solving Time 1.629765510559082
obj value 259.07577093274665
Policy Regret train (Sum) 1.11463943412055
Best Treatment Found train (%) 89.60000000000001
treatment classification acc train (%) 51.2
Policy Regret test (Sum) 93.41694843558187
Best Treatment Found test (%) 69.02000000000001
treatment classification acc test (%) 49.65
